peakDumbCharging = 18500; 
Machine = anon_enum(16); 
machineSpeed = [3700,3700,3700,3700,3700,3700,3700,3700,3700,3700,3700,3700,3700,3700,3700,3700]; 
machineLoad = [3700,3700,3700,3700,3700,3700,3700,3700,3700,3700,3700,3700,3700,3700,3700,3700]; 
Car = anon_enum(27); 
demandCar = [12880,15440,6360,10320,5760,7160,33200,7960,12080,9320,6920,14920,6960,3000,1400,18840,5920,2360,12480,1640,4560,7480,11080,4240,11400,8440,35360]; 
arrivalCar = [67,66,65,64,60,59,58,56,53,51,51,49,44,44,43,41,41,39,38,37,35,33,33,32,32,31,21]; 
departureCar = [72,73,70,68,64,63,79,60,60,57,55,57,49,48,44,49,44,41,43,39,39,38,39,37,38,37,42]; 
